certificates/rado_a11_c81_N27.cnf
c Rad2 upper bound instance: x1 + 11*x2 - x3 = 81, interval [1,27]
p cnf 27 128
1 8 0
-1 -8 0
1 9 19 0
-1 -9 -19 0
2 8 9 0
-2 -8 -9 0
2 9 20 0
-2 -9 -20 0
3 8 10 0
-3 -8 -10 0
3 9 21 0
-3 -9 -21 0
4 8 11 0
-4 -8 -11 0
4 9 22 0
-4 -9 -22 0
1 5 7 0
-1 -5 -7 0
5 8 12 0
-5 -8 -12 0
5 9 23 0
-5 -9 -23 0
2 6 7 0
-2 -6 -7 0
6 8 13 0
-6 -8 -13 0
6 9 24 0
-6 -9 -24 0
3 7 0
-3 -7 0
7 8 14 0
-7 -8 -14 0
7 9 25 0
-7 -9 -25 0
4 7 8 0
-4 -7 -8 0
8 15 0
-8 -15 0
8 9 26 0
-8 -9 -26 0
5 7 9 0
-5 -7 -9 0
8 9 16 0
-8 -9 -16 0
9 27 0
-9 -27 0
6 7 10 0
-6 -7 -10 0
8 10 17 0
-8 -10 -17 0
7 11 0
-7 -11 0
8 11 18 0
-8 -11 -18 0
7 8 12 0
-7 -8 -12 0
8 12 19 0
-8 -12 -19 0
7 9 13 0
-7 -9 -13 0
8 13 20 0
-8 -13 -20 0
7 10 14 0
-7 -10 -14 0
8 14 21 0
-8 -14 -21 0
7 11 15 0
-7 -11 -15 0
8 15 22 0
-8 -15 -22 0
1 6 16 0
-1 -6 -16 0
7 12 16 0
-7 -12 -16 0
8 16 23 0
-8 -16 -23 0
2 6 17 0
-2 -6 -17 0
7 13 17 0
-7 -13 -17 0
8 17 24 0
-8 -17 -24 0
3 6 18 0
-3 -6 -18 0
7 14 18 0
-7 -14 -18 0
8 18 25 0
-8 -18 -25 0
4 6 19 0
-4 -6 -19 0
7 15 19 0
-7 -15 -19 0
8 19 26 0
-8 -19 -26 0
5 6 20 0
-5 -6 -20 0
7 16 20 0
-7 -16 -20 0
8 20 27 0
-8 -20 -27 0
6 21 0
-6 -21 0
7 17 21 0
-7 -17 -21 0
6 7 22 0
-6 -7 -22 0
7 18 22 0
-7 -18 -22 0
6 8 23 0
-6 -8 -23 0
7 19 23 0
-7 -19 -23 0
7 20 24 0
-7 -20 -24 0
6 10 25 0
-6 -10 -25 0
7 21 25 0
-7 -21 -25 0
6 11 26 0
-6 -11 -26 0
7 22 26 0
-7 -22 -26 0
1 5 27 0
-1 -5 -27 0
6 12 27 0
-6 -12 -27 0
7 23 27 0
-7 -23 -27 0
