certificates/rado_a11_c81_N27.drat
7 -26 -27 0
-26 -27 0
d 7 -26 -27 0
-7 -27 0
-27 0
9 0
7 26 0
26 0
-8 0
1 0
15 0
20 0
-19 0
-2 0
12 0
-7 0
3 0
11 0
23 0
14 0
4 0
6 0
-21 0
0
